(set-logic ALL)
(declare-fun seed0_T_1 () Bool)
(declare-fun seed0_T_2 () Bool)
(declare-fun seed0_T_3 () Bool)
(declare-fun seed0_T_4 () Bool)
(declare-fun seed0_var_0xINPUT_107913 () String)
(assert (and (or (= seed0_T_1 (= "-" seed0_var_0xINPUT_107913)) (not (str.contains (str.++ seed0_var_0xINPUT_107913 "wKxsFlmzqhW1") (str.++ seed0_var_0xINPUT_107913 "YyculC")))) (or (= seed0_T_2 (not seed0_T_1)) (str.< (str.++ seed0_var_0xINPUT_107913 "e7h80rnbIs") (str.++ seed0_var_0xINPUT_107913 "7oHPb9qj5iTAStCksKMI"))) (or seed0_T_2 (xor (str.prefixof (str.++ seed0_var_0xINPUT_107913 "SzRo2nOPGwWb5h") (str.++ seed0_var_0xINPUT_107913 "tG9XxeOKm")) (str.< (str.++ seed0_var_0xINPUT_107913 "") (str.++ seed0_var_0xINPUT_107913 "8")))) (or (= seed0_T_3 (= "" seed0_var_0xINPUT_107913)) (and (str.< (str.++ seed0_var_0xINPUT_107913 "x6DKSFrBfdJlYaO") (str.++ seed0_var_0xINPUT_107913 "w")) (str.< (str.++ seed0_var_0xINPUT_107913 "0B65qpklgan7m") (str.++ seed0_var_0xINPUT_107913 "Wf0lVnYpxaQgPOym")))) (or (= seed0_T_4 (not seed0_T_3)) (or (str.suffixof (str.++ seed0_var_0xINPUT_107913 "kKGLryRMw0tp95vJPIgX") (str.++ seed0_var_0xINPUT_107913 "")) (str.contains (str.++ seed0_var_0xINPUT_107913 "s") (str.++ seed0_var_0xINPUT_107913 "3DVX")))) (or seed0_T_4 (=> (str.< (str.++ seed0_var_0xINPUT_107913 "ovEB") (str.++ seed0_var_0xINPUT_107913 "xYk9u8")) (str.suffixof (str.++ seed0_var_0xINPUT_107913 "zitY") (str.++ seed0_var_0xINPUT_107913 ""))))))
(check-sat)
(exit)